(set-logic QF_NIA)
(set-info :source |
    Sequential equivalence checking.
    Calypto Design Systems, Inc. <www.calypto.com>
  |)
(set-info :smt-lib-version 2.0)
(set-info :category "industrial")
(set-info :status unsat)
(declare-fun P_2 () Bool)
(declare-fun P_3 () Bool)
(declare-fun P_4 () Int)
(declare-fun P_5 () Int)
(declare-fun P_6 () Int)
(declare-fun P_7 () Int)
(declare-fun P_8 () Int)
(declare-fun P_9 () Int)
(declare-fun P_12 () Int)
(assert (<= 0 P_4))
(assert (<= P_4 255))
(assert (<= 0 P_5))
(assert (<= P_5 255))
(assert (<= 0 P_6))
(assert (<= P_6 255))
(assert (<= 0 P_7))
(assert (<= P_7 255))
(assert (<= 0 P_8))
(assert (<= P_8 255))
(assert (<= 0 P_9))
(assert (<= P_9 255))
(assert (<= 0 P_12))
(assert (<= P_12 255))
(declare-fun dz () Int)
(declare-fun rz () Int)
(assert (let ((?v_1 (ite (not P_2) (ite (not P_3) 2 1) 0)) (?v_2 (- (* P_4 P_5) P_6))) (let ((?v_5 (= ?v_1 2)) (?v_3 (= ?v_1 1)) (?v_0 (= ?v_1 0))) (let ((?v_4 (+ (ite ?v_0 ?v_2 (ite ?v_3 ?v_2 (ite ?v_5 ?v_2 P_7))) P_5))) (let ((?v_6 (- (ite ?v_0 ?v_4 (ite ?v_3 ?v_4 (ite ?v_5 ?v_4 P_8))) P_9))) (= (+ (* 256 dz) rz) (- (ite ?v_0 ?v_6 (ite ?v_3 ?v_6 (ite ?v_5 ?v_6 P_12))) ?v_6)))))))
(assert (> rz 0))
(assert (< rz 256))
(check-sat)
(exit)
